30
 1 340 925
 2 555 903
 3 386 258
 4 359 589
 5 286 362
 6 809 90
 7 384 796
 8 369 980
 9 315 568
 10 84 455
 11 471 368
 12 285 542
 13 586 12
 14 920 832
 15 349 496
 16 538 851
 17 426 492
 18 508 159
 19 900 665
 20 974 265
 21 375 499
 22 473 522
 23 294 623
 24 365 428
 25 147 362
 26 257 761
 27 313 667
 28 920 159
 29 661 526
 30 880 188
 4000